\ This file has been generated by DOcplex
\ ENCODING=ISO-8859-1
\Problem name: random_problem.lp

Minimize
 obj: 436 x0 + 218 x1 + 109 x2 - 308 x3 - 154 x4 - 77 x5 - 392 x6 - 196 x7
      - 98 x8 + 180 x9 + 90 x10 + 45 x11 + 616 x12 + 308 x13 + 154 x14 - 400 x15
      - 200 x16 - 100 x17 + 1020 x18 + 510 x19 + 255 x20 - 1464 x21 - 732 x22
      - 366 x23 + [ 1984 x0^2 + 1984 x0*x1 + 992 x0*x2 - 256 x0*x3 - 128 x0*x4
      - 64 x0*x5 + 1024 x0*x6 + 512 x0*x7 + 256 x0*x8 + 1600 x0*x9 + 800 x0*x10
      + 400 x0*x11 + 2560 x0*x12 + 1280 x0*x13 + 640 x0*x14 + 1536 x0*x18
      + 768 x0*x19 + 384 x0*x20 + 1600 x0*x21 + 800 x0*x22 + 400 x0*x23
      + 496 x1^2 + 496 x1*x2 - 128 x1*x3 - 64 x1*x4 - 32 x1*x5 + 512 x1*x6
      + 256 x1*x7 + 128 x1*x8 + 800 x1*x9 + 400 x1*x10 + 200 x1*x11
      + 1280 x1*x12 + 640 x1*x13 + 320 x1*x14 + 768 x1*x18 + 384 x1*x19
      + 192 x1*x20 + 800 x1*x21 + 400 x1*x22 + 200 x1*x23 + 124 x2^2 - 64 x2*x3
      - 32 x2*x4 - 16 x2*x5 + 256 x2*x6 + 128 x2*x7 + 64 x2*x8 + 400 x2*x9
      + 200 x2*x10 + 100 x2*x11 + 640 x2*x12 + 320 x2*x13 + 160 x2*x14
      + 384 x2*x18 + 192 x2*x19 + 96 x2*x20 + 400 x2*x21 + 200 x2*x22
      + 100 x2*x23 + 5056 x3^2 + 5056 x3*x4 + 2528 x3*x5 + 2688 x3*x6
      + 1344 x3*x7 + 672 x3*x8 + 1792 x3*x9 + 896 x3*x10 + 448 x3*x11
      + 3328 x3*x12 + 1664 x3*x13 + 832 x3*x14 + 2304 x3*x15 + 1152 x3*x16
      + 576 x3*x17 + 4736 x3*x18 + 2368 x3*x19 + 1184 x3*x20 + 3328 x3*x21
      + 1664 x3*x22 + 832 x3*x23 + 1264 x4^2 + 1264 x4*x5 + 1344 x4*x6
      + 672 x4*x7 + 336 x4*x8 + 896 x4*x9 + 448 x4*x10 + 224 x4*x11
      + 1664 x4*x12 + 832 x4*x13 + 416 x4*x14 + 1152 x4*x15 + 576 x4*x16
      + 288 x4*x17 + 2368 x4*x18 + 1184 x4*x19 + 592 x4*x20 + 1664 x4*x21
      + 832 x4*x22 + 416 x4*x23 + 316 x5^2 + 672 x5*x6 + 336 x5*x7 + 168 x5*x8
      + 448 x5*x9 + 224 x5*x10 + 112 x5*x11 + 832 x5*x12 + 416 x5*x13
      + 208 x5*x14 + 576 x5*x15 + 288 x5*x16 + 144 x5*x17 + 1184 x5*x18
      + 592 x5*x19 + 296 x5*x20 + 832 x5*x21 + 416 x5*x22 + 208 x5*x23
      + 1376 x6^2 + 1376 x6*x7 + 688 x6*x8 + 2304 x6*x9 + 1152 x6*x10
      + 576 x6*x11 + 3200 x6*x12 + 1600 x6*x13 + 800 x6*x14 + 1280 x6*x15
      + 640 x6*x16 + 320 x6*x17 + 3520 x6*x18 + 1760 x6*x19 + 880 x6*x20
      + 1792 x6*x21 + 896 x6*x22 + 448 x6*x23 + 344 x7^2 + 344 x7*x8
      + 1152 x7*x9 + 576 x7*x10 + 288 x7*x11 + 1600 x7*x12 + 800 x7*x13
      + 400 x7*x14 + 640 x7*x15 + 320 x7*x16 + 160 x7*x17 + 1760 x7*x18
      + 880 x7*x19 + 440 x7*x20 + 896 x7*x21 + 448 x7*x22 + 224 x7*x23 + 86 x8^2
      + 576 x8*x9 + 288 x8*x10 + 144 x8*x11 + 800 x8*x12 + 400 x8*x13
      + 200 x8*x14 + 320 x8*x15 + 160 x8*x16 + 80 x8*x17 + 880 x8*x18
      + 440 x8*x19 + 220 x8*x20 + 448 x8*x21 + 224 x8*x22 + 112 x8*x23
      + 1792 x9^2 + 1792 x9*x10 + 896 x9*x11 + 3008 x9*x12 + 1504 x9*x13
      + 752 x9*x14 + 896 x9*x15 + 448 x9*x16 + 224 x9*x17 + 3328 x9*x18
      + 1664 x9*x19 + 832 x9*x20 + 2368 x9*x21 + 1184 x9*x22 + 592 x9*x23
      + 448 x10^2 + 448 x10*x11 + 1504 x10*x12 + 752 x10*x13 + 376 x10*x14
      + 448 x10*x15 + 224 x10*x16 + 112 x10*x17 + 1664 x10*x18 + 832 x10*x19
      + 416 x10*x20 + 1184 x10*x21 + 592 x10*x22 + 296 x10*x23 + 112 x11^2
      + 752 x11*x12 + 376 x11*x13 + 188 x11*x14 + 224 x11*x15 + 112 x11*x16
      + 56 x11*x17 + 832 x11*x18 + 416 x11*x19 + 208 x11*x20 + 592 x11*x21
      + 296 x11*x22 + 148 x11*x23 + 4512 x12^2 + 4512 x12*x13 + 2256 x12*x14
      + 768 x12*x15 + 384 x12*x16 + 192 x12*x17 + 3136 x12*x18 + 1568 x12*x19
      + 784 x12*x20 + 3328 x12*x21 + 1664 x12*x22 + 832 x12*x23 + 1128 x13^2
      + 1128 x13*x14 + 384 x13*x15 + 192 x13*x16 + 96 x13*x17 + 1568 x13*x18
      + 784 x13*x19 + 392 x13*x20 + 1664 x13*x21 + 832 x13*x22 + 416 x13*x23
      + 282 x14^2 + 192 x14*x15 + 96 x14*x16 + 48 x14*x17 + 784 x14*x18
      + 392 x14*x19 + 196 x14*x20 + 832 x14*x21 + 416 x14*x22 + 208 x14*x23
      + 992 x15^2 + 992 x15*x16 + 496 x15*x17 + 1536 x15*x18 + 768 x15*x19
      + 384 x15*x20 + 640 x15*x21 + 320 x15*x22 + 160 x15*x23 + 248 x16^2
      + 248 x16*x17 + 768 x16*x18 + 384 x16*x19 + 192 x16*x20 + 320 x16*x21
      + 160 x16*x22 + 80 x16*x23 + 62 x17^2 + 384 x17*x18 + 192 x17*x19
      + 96 x17*x20 + 160 x17*x21 + 80 x17*x22 + 40 x17*x23 + 4256 x18^2
      + 4256 x18*x19 + 2128 x18*x20 + 3712 x18*x21 + 1856 x18*x22 + 928 x18*x23
      + 1064 x19^2 + 1064 x19*x20 + 1856 x19*x21 + 928 x19*x22 + 464 x19*x23
      + 266 x20^2 + 928 x20*x21 + 464 x20*x22 + 232 x20*x23 + 2528 x21^2
      + 2528 x21*x22 + 1264 x21*x23 + 632 x22^2 + 632 x22*x23 + 158 x23^2 ]/2
Subject To
 c0: 4 x0 + 2 x1 + x2 + 4 x3 + 2 x4 + x5 + 4 x6 + 2 x7 + x8 + 4 x9 + 2 x10 + x11
     + 4 x12 + 2 x13 + x14 + 4 x15 + 2 x16 + x17 + 4 x18 + 2 x19 + x20 + 4 x21
     + 2 x22 + x23 = 7

Bounds
 0 <= x0 <= 1
 0 <= x1 <= 1
 0 <= x2 <= 1
 0 <= x3 <= 1
 0 <= x4 <= 1
 0 <= x5 <= 1
 0 <= x6 <= 1
 0 <= x7 <= 1
 0 <= x8 <= 1
 0 <= x9 <= 1
 0 <= x10 <= 1
 0 <= x11 <= 1
 0 <= x12 <= 1
 0 <= x13 <= 1
 0 <= x14 <= 1
 0 <= x15 <= 1
 0 <= x16 <= 1
 0 <= x17 <= 1
 0 <= x18 <= 1
 0 <= x19 <= 1
 0 <= x20 <= 1
 0 <= x21 <= 1
 0 <= x22 <= 1
 0 <= x23 <= 1

Binaries
 x0 x1 x2 x3 x4 x5 x6 x7 x8 x9 x10 x11 x12 x13 x14 x15 x16 x17 x18 x19 x20 x21
 x22 x23
End
